c CNF-Signature NOR_7
c 
c $p 7 1
c $m (1,2,3,4,5,6,7,8)
c $i 1
c $i 2
c $i 3
c $i 4
c $i 5
c $i 6
c $i 7
c $o 8
p cnf 8 8
-1 -8 0
-2 -8 0
-3 -8 0
-4 -8 0
-5 -8 0
-6 -8 0
-7 -8 0
1 2 3 4 5 6 7 8 0
